NAME : n80w160.001.506.tour
COMMENT : Length = 506
COMMENT : Found by LKH [Keld Helsgaun] Tue May  2 05:19:07 2017
TYPE : TOUR
DIMENSION : 81
TOUR_SECTION
1
15
41
79
9
42
72
10
8
19
11
46
17
65
80
63
30
66
25
34
32
43
37
57
35
49
52
39
75
22
64
68
31
77
20
60
6
56
62
18
54
48
74
2
70
5
45
58
71
40
53
33
29
59
50
27
26
73
55
23
4
76
44
13
21
16
12
69
61
78
67
38
14
47
24
28
7
3
81
36
51
-1
EOF
